c clasp version 2.1.1
c Reading from p53.cnf
c Solving...
s SATISFIABLE

c Models        : 1+    
c Time          : 2.112s (Solving: 0.41s 1st Model: 0.41s Unsat: 0.00s)
c CPU Time      : 2.100s
c Choices       : 13745
c Conflicts     : 912
c Restarts      : 2      (Average: 456.00 Last: 193)

c Variables     : 231522 (Eliminated: 72221 Frozen:    0)
c Constraints   : 265245 (Binary: 64.6% Ternary: 34.2% Other:  1.2%)
c Lemmas        : 912    (Binary:  0.2% Ternary:  1.5% Other: 98.2%)
c   Conflict    : 912    (Average Length: 48.1) 
c   Loop        : 0      (Average Length: 0.0) 
c   Other       : 0      (Average Length: 0.0)
c   Deleted     : 0     
